180	32	4	92	
10	10	10	10

0	0	0	0	0	0	7	1	12	13	17	28	29	30
1	1	1	0	1	8	4	27	26	24	2
2	3	3	0	4	7	2	25	3
3	3	2	0	1	3	2	23	4
4	6	0	1	2	3	1	5
5	4	0	3	3	8	1	6
6	1	0	3	4	9	2	20	7
7	3	3	0	6	2	3	22	21	8
8	2	6	6	0	9	1	9
9	0	6	2	1	8	1	10
10	0	5	2	5	7	2	19	11
11	6	0	5	5	6	1	14
12	0	4	3	3	9	1	14
13	2	1	0	2	8	2	20	16
14	1	3	4	0	9	1	15
15	0	7	3	5	7	1	16
16	2	9	4	0	2	1	18
17	9	6	0	6	4	1	24
18	5	0	10	2	4	1	31
19	3	0	5	3	5	1	31
20	0	6	4	6	2	1	31
21	6	1	4	0	4	1	31
22	4	3	0	2	6	1	31
23	10	1	0	8	8	1	31
24	7	7	6	0	6	1	31
25	4	4	6	0	7	1	31
26	4	3	0	6	7	1	31
27	4	2	0	3	3	1	31
28	2	5	0	5	10	1	31
29	0	4	2	5	4	1	31
30	0	4	3	8	5	1	31
31	0	0	0	0	0	0
